p cnf 580 1457
1 0
2 0
3 0
4 0
5 0
6 0
7 0
8 0
9 0
10 0
-11 0
-12 0
-13 0
-14 0
-15 0
-16 0
-17 0
-18 0
-19 0
-20 0
1 -21 0
21 -1 0
2 -22 0
22 -2 0
3 -23 0
23 -3 0
4 -24 0
24 -4 0
5 -25 0
25 -5 0
6 -26 0
26 -6 0
7 -27 0
27 -7 0
8 -28 0
28 -8 0
9 -29 0
29 -9 0
10 -30 0
30 -10 0
31 32 0
33 32 0
34 32 0
35 32 0
36 32 0
37 32 0
38 32 0
-39 0
-11 32 -40 0
11 -32 -40 0
40 -32 -11 0
11 32 40 0
-40 0
33 41 0
34 41 0
35 41 0
36 41 0
37 41 0
38 41 0
-42 0
-43 41 -44 0
43 -41 -44 0
44 -41 -43 0
43 41 44 0
-44 0
34 45 0
35 45 0
36 45 0
37 45 0
38 45 0
-46 0
-47 45 -48 0
47 -45 -48 0
48 -45 -47 0
47 45 48 0
-48 0
-49 45 -50 0
49 -45 -50 0
50 -45 -49 0
49 45 50 0
-50 0
-51 45 -52 0
51 -45 -52 0
52 -45 -51 0
51 45 52 0
-52 0
-53 45 -54 0
53 -45 -54 0
54 -45 -53 0
53 45 54 0
-54 0
-55 45 -56 0
55 -45 -56 0
56 -45 -55 0
55 45 56 0
-56 0
57 58 0
59 58 0
60 58 0
61 58 0
62 58 0
63 58 0
64 58 0
65 58 0
66 58 0
67 58 0
68 58 0
69 58 0
-70 0
-12 58 -71 0
12 -58 -71 0
71 -58 -12 0
12 58 71 0
-71 0
59 72 0
60 72 0
61 72 0
62 72 0
63 72 0
64 72 0
65 72 0
66 72 0
67 72 0
68 72 0
69 72 0
-73 0
-74 72 -75 0
74 -72 -75 0
75 -72 -74 0
74 72 75 0
-75 0
60 76 0
61 76 0
62 76 0
63 76 0
64 76 0
65 76 0
66 76 0
67 76 0
68 76 0
69 76 0
-77 0
-78 76 -79 0
78 -76 -79 0
79 -76 -78 0
78 76 79 0
-79 0
61 80 0
62 80 0
63 80 0
64 80 0
65 80 0
66 80 0
67 80 0
68 80 0
69 80 0
-81 0
-82 80 -83 0
82 -80 -83 0
83 -80 -82 0
82 80 83 0
-83 0
62 84 0
63 84 0
64 84 0
65 84 0
66 84 0
67 84 0
68 84 0
69 84 0
-85 0
-86 84 -87 0
86 -84 -87 0
87 -84 -86 0
86 84 87 0
-87 0
63 88 0
64 88 0
65 88 0
66 88 0
67 88 0
68 88 0
69 88 0
-89 0
-90 88 -91 0
90 -88 -91 0
91 -88 -90 0
90 88 91 0
-91 0
64 92 0
65 92 0
66 92 0
67 92 0
68 92 0
69 92 0
-93 0
-94 92 -95 0
94 -92 -95 0
95 -92 -94 0
94 92 95 0
-95 0
-96 92 -97 0
96 -92 -97 0
97 -92 -96 0
96 92 97 0
-97 0
-98 92 -99 0
98 -92 -99 0
99 -92 -98 0
98 92 99 0
-99 0
-100 92 -101 0
100 -92 -101 0
101 -92 -100 0
100 92 101 0
-101 0
-102 92 -103 0
102 -92 -103 0
103 -92 -102 0
102 92 103 0
-103 0
-104 92 -105 0
104 -92 -105 0
105 -92 -104 0
104 92 105 0
-105 0
106 107 0
108 107 0
109 107 0
110 107 0
111 107 0
112 107 0
113 107 0
114 107 0
115 107 0
116 107 0
117 107 0
-118 0
-13 107 -119 0
13 -107 -119 0
119 -107 -13 0
13 107 119 0
-119 0
108 120 0
109 120 0
110 120 0
111 120 0
112 120 0
113 120 0
114 120 0
115 120 0
116 120 0
117 120 0
-121 0
-122 120 -123 0
122 -120 -123 0
123 -120 -122 0
122 120 123 0
-123 0
109 124 0
110 124 0
111 124 0
112 124 0
113 124 0
114 124 0
115 124 0
116 124 0
117 124 0
-125 0
-126 124 -127 0
126 -124 -127 0
127 -124 -126 0
126 124 127 0
-127 0
110 128 0
111 128 0
112 128 0
113 128 0
114 128 0
115 128 0
116 128 0
117 128 0
-129 0
-130 128 -131 0
130 -128 -131 0
131 -128 -130 0
130 128 131 0
-131 0
111 132 0
112 132 0
113 132 0
114 132 0
115 132 0
116 132 0
117 132 0
-133 0
-134 132 -135 0
134 -132 -135 0
135 -132 -134 0
134 132 135 0
-135 0
112 136 0
113 136 0
114 136 0
115 136 0
116 136 0
117 136 0
-137 0
-138 136 -139 0
138 -136 -139 0
139 -136 -138 0
138 136 139 0
-139 0
113 140 0
114 140 0
115 140 0
116 140 0
117 140 0
-141 0
-142 140 -143 0
142 -140 -143 0
143 -140 -142 0
142 140 143 0
-143 0
-144 140 -145 0
144 -140 -145 0
145 -140 -144 0
144 140 145 0
-145 0
-146 140 -147 0
146 -140 -147 0
147 -140 -146 0
146 140 147 0
-147 0
-148 140 -149 0
148 -140 -149 0
149 -140 -148 0
148 140 149 0
-149 0
-150 140 -151 0
150 -140 -151 0
151 -140 -150 0
150 140 151 0
-151 0
152 153 0
154 153 0
155 153 0
156 153 0
157 153 0
158 153 0
159 153 0
160 153 0
-161 0
-14 153 -162 0
14 -153 -162 0
162 -153 -14 0
14 153 162 0
-162 0
154 163 0
155 163 0
156 163 0
157 163 0
158 163 0
159 163 0
160 163 0
-164 0
-165 163 -166 0
165 -163 -166 0
166 -163 -165 0
165 163 166 0
-166 0
155 167 0
156 167 0
157 167 0
158 167 0
159 167 0
160 167 0
-168 0
-169 167 -170 0
169 -167 -170 0
170 -167 -169 0
169 167 170 0
-170 0
156 171 0
157 171 0
158 171 0
159 171 0
160 171 0
-172 0
-173 171 -174 0
173 -171 -174 0
174 -171 -173 0
173 171 174 0
-174 0
-175 171 -176 0
175 -171 -176 0
176 -171 -175 0
175 171 176 0
-176 0
-177 171 -178 0
177 -171 -178 0
178 -171 -177 0
177 171 178 0
-178 0
-179 171 -180 0
179 -171 -180 0
180 -171 -179 0
179 171 180 0
-180 0
-181 171 -182 0
181 -171 -182 0
182 -171 -181 0
181 171 182 0
-182 0
183 184 0
185 184 0
186 184 0
187 184 0
188 184 0
189 184 0
190 184 0
191 184 0
192 184 0
-193 0
-15 184 -194 0
15 -184 -194 0
194 -184 -15 0
15 184 194 0
-194 0
185 195 0
186 195 0
187 195 0
188 195 0
189 195 0
190 195 0
191 195 0
192 195 0
-196 0
-197 195 -198 0
197 -195 -198 0
198 -195 -197 0
197 195 198 0
-198 0
186 199 0
187 199 0
188 199 0
189 199 0
190 199 0
191 199 0
192 199 0
-200 0
-201 199 -202 0
201 -199 -202 0
202 -199 -201 0
201 199 202 0
-202 0
187 203 0
188 203 0
189 203 0
190 203 0
191 203 0
192 203 0
-204 0
-205 203 -206 0
205 -203 -206 0
206 -203 -205 0
205 203 206 0
-206 0
188 207 0
189 207 0
190 207 0
191 207 0
192 207 0
-208 0
-209 207 -210 0
209 -207 -210 0
210 -207 -209 0
209 207 210 0
-210 0
-211 207 -212 0
211 -207 -212 0
212 -207 -211 0
211 207 212 0
-212 0
-213 207 -214 0
213 -207 -214 0
214 -207 -213 0
213 207 214 0
-214 0
-215 207 -216 0
215 -207 -216 0
216 -207 -215 0
215 207 216 0
-216 0
-217 207 -218 0
217 -207 -218 0
218 -207 -217 0
217 207 218 0
-218 0
219 220 0
221 220 0
222 220 0
223 220 0
224 220 0
225 220 0
-226 0
-16 220 -227 0
16 -220 -227 0
227 -220 -16 0
16 220 227 0
-227 0
221 228 0
222 228 0
223 228 0
224 228 0
225 228 0
-229 0
-230 228 -231 0
230 -228 -231 0
231 -228 -230 0
230 228 231 0
-231 0
-232 228 -233 0
232 -228 -233 0
233 -228 -232 0
232 228 233 0
-233 0
-234 228 -235 0
234 -228 -235 0
235 -228 -234 0
234 228 235 0
-235 0
-236 228 -237 0
236 -228 -237 0
237 -228 -236 0
236 228 237 0
-237 0
-238 228 -239 0
238 -228 -239 0
239 -228 -238 0
238 228 239 0
-239 0
240 241 0
242 241 0
243 241 0
244 241 0
245 241 0
246 241 0
247 241 0
-248 0
-17 241 -249 0
17 -241 -249 0
249 -241 -17 0
17 241 249 0
-249 0
242 250 0
243 250 0
244 250 0
245 250 0
246 250 0
247 250 0
-251 0
-252 250 -253 0
252 -250 -253 0
253 -250 -252 0
252 250 253 0
-253 0
243 254 0
244 254 0
245 254 0
246 254 0
247 254 0
-255 0
-256 254 -257 0
256 -254 -257 0
257 -254 -256 0
256 254 257 0
-257 0
244 258 0
245 258 0
246 258 0
247 258 0
-259 0
-260 258 -261 0
260 -258 -261 0
261 -258 -260 0
260 258 261 0
-261 0
-262 258 -263 0
262 -258 -263 0
263 -258 -262 0
262 258 263 0
-263 0
-264 258 -265 0
264 -258 -265 0
265 -258 -264 0
264 258 265 0
-265 0
-266 258 -267 0
266 -258 -267 0
267 -258 -266 0
266 258 267 0
-267 0
268 269 0
270 269 0
271 269 0
272 269 0
273 269 0
274 269 0
275 269 0
-276 0
-18 269 -277 0
18 -269 -277 0
277 -269 -18 0
18 269 277 0
-277 0
270 278 0
271 278 0
272 278 0
273 278 0
274 278 0
275 278 0
-279 0
-280 278 -281 0
280 -278 -281 0
281 -278 -280 0
280 278 281 0
-281 0
271 282 0
272 282 0
273 282 0
274 282 0
275 282 0
-283 0
-284 282 -285 0
284 -282 -285 0
285 -282 -284 0
284 282 285 0
-285 0
272 286 0
273 286 0
274 286 0
275 286 0
-287 0
-288 286 -289 0
288 -286 -289 0
289 -286 -288 0
288 286 289 0
-289 0
-290 286 -291 0
290 -286 -291 0
291 -286 -290 0
290 286 291 0
-291 0
-292 286 -293 0
292 -286 -293 0
293 -286 -292 0
292 286 293 0
-293 0
-294 286 -295 0
294 -286 -295 0
295 -286 -294 0
294 286 295 0
-295 0
296 297 0
298 297 0
299 297 0
300 297 0
301 297 0
302 297 0
303 297 0
304 297 0
305 297 0
-306 0
-19 297 -307 0
19 -297 -307 0
307 -297 -19 0
19 297 307 0
-307 0
298 308 0
299 308 0
300 308 0
301 308 0
302 308 0
303 308 0
304 308 0
305 308 0
-309 0
-310 308 -311 0
310 -308 -311 0
311 -308 -310 0
310 308 311 0
-311 0
299 312 0
300 312 0
301 312 0
302 312 0
303 312 0
304 312 0
305 312 0
-313 0
-314 312 -315 0
314 -312 -315 0
315 -312 -314 0
314 312 315 0
-315 0
300 316 0
301 316 0
302 316 0
303 316 0
304 316 0
305 316 0
-317 0
-318 316 -319 0
318 -316 -319 0
319 -316 -318 0
318 316 319 0
-319 0
301 320 0
302 320 0
303 320 0
304 320 0
305 320 0
-321 0
-322 320 -323 0
322 -320 -323 0
323 -320 -322 0
322 320 323 0
-323 0
302 324 0
303 324 0
304 324 0
305 324 0
-325 0
-326 324 -327 0
326 -324 -327 0
327 -324 -326 0
326 324 327 0
-327 0
-328 324 -329 0
328 -324 -329 0
329 -324 -328 0
328 324 329 0
-329 0
-330 324 -331 0
330 -324 -331 0
331 -324 -330 0
330 324 331 0
-331 0
-332 324 -333 0
332 -324 -333 0
333 -324 -332 0
332 324 333 0
-333 0
334 335 0
336 335 0
337 335 0
338 335 0
339 335 0
340 335 0
341 335 0
342 335 0
343 335 0
344 335 0
345 335 0
-346 0
-20 335 -347 0
20 -335 -347 0
347 -335 -20 0
20 335 347 0
-347 0
336 348 0
337 348 0
338 348 0
339 348 0
340 348 0
341 348 0
342 348 0
343 348 0
344 348 0
345 348 0
-349 0
-350 348 -351 0
350 -348 -351 0
351 -348 -350 0
350 348 351 0
-351 0
337 352 0
338 352 0
339 352 0
340 352 0
341 352 0
342 352 0
343 352 0
344 352 0
345 352 0
-353 0
-354 352 -355 0
354 -352 -355 0
355 -352 -354 0
354 352 355 0
-355 0
338 356 0
339 356 0
340 356 0
341 356 0
342 356 0
343 356 0
344 356 0
345 356 0
-357 0
-358 356 -359 0
358 -356 -359 0
359 -356 -358 0
358 356 359 0
-359 0
339 360 0
340 360 0
341 360 0
342 360 0
343 360 0
344 360 0
345 360 0
-361 0
-362 360 -363 0
362 -360 -363 0
363 -360 -362 0
362 360 363 0
-363 0
340 364 0
341 364 0
342 364 0
343 364 0
344 364 0
345 364 0
-365 0
-366 364 -367 0
366 -364 -367 0
367 -364 -366 0
366 364 367 0
-367 0
-368 364 -369 0
368 -364 -369 0
369 -364 -368 0
368 364 369 0
-369 0
-370 364 -371 0
370 -364 -371 0
371 -364 -370 0
370 364 371 0
-371 0
-372 364 -373 0
372 -364 -373 0
373 -364 -372 0
372 364 373 0
-373 0
-374 364 -375 0
374 -364 -375 0
375 -364 -374 0
374 364 375 0
-375 0
-376 364 -377 0
376 -364 -377 0
377 -364 -376 0
376 364 377 0
-377 0
-21 378 -379 0
21 -378 -379 0
-21 -378 379 0
21 378 379 0
-379 0
-22 380 -381 0
22 -380 -381 0
-22 -380 381 0
22 380 381 0
-381 0
-23 382 -383 0
23 -382 -383 0
-23 -382 383 0
23 382 383 0
-383 0
-24 384 -385 0
24 -384 -385 0
-24 -384 385 0
24 384 385 0
-385 0
-25 386 -387 0
25 -386 -387 0
-25 -386 387 0
25 386 387 0
-387 0
-26 388 -389 0
26 -388 -389 0
-26 -388 389 0
26 388 389 0
-389 0
-27 390 -391 0
27 -390 -391 0
-27 -390 391 0
27 390 391 0
-391 0
-28 392 -393 0
28 -392 -393 0
-28 -392 393 0
28 392 393 0
-393 0
-29 394 -395 0
29 -394 -395 0
-29 -394 395 0
29 394 395 0
-395 0
-30 396 -397 0
30 -396 -397 0
-30 -396 397 0
30 396 397 0
-397 0
-31 398 -399 0
31 -398 -399 0
-31 -398 399 0
31 398 399 0
-399 0
-33 400 -401 0
33 -400 -401 0
-33 -400 401 0
33 400 401 0
-401 0
-34 402 -403 0
34 -402 -403 0
-34 -402 403 0
34 402 403 0
-403 0
-35 404 -405 0
35 -404 -405 0
-35 -404 405 0
35 404 405 0
-405 0
-36 406 -407 0
36 -406 -407 0
-36 -406 407 0
36 406 407 0
-407 0
-37 408 -409 0
37 -408 -409 0
-37 -408 409 0
37 408 409 0
-409 0
-38 410 -411 0
38 -410 -411 0
-38 -410 411 0
38 410 411 0
-411 0
-57 412 -413 0
57 -412 -413 0
-57 -412 413 0
57 412 413 0
-413 0
-59 414 -415 0
59 -414 -415 0
-59 -414 415 0
59 414 415 0
-415 0
-60 416 -417 0
60 -416 -417 0
-60 -416 417 0
60 416 417 0
-417 0
-61 418 -419 0
61 -418 -419 0
-61 -418 419 0
61 418 419 0
-419 0
-62 420 -421 0
62 -420 -421 0
-62 -420 421 0
62 420 421 0
-421 0
-63 422 -423 0
63 -422 -423 0
-63 -422 423 0
63 422 423 0
-423 0
-64 424 -425 0
64 -424 -425 0
-64 -424 425 0
64 424 425 0
-425 0
-65 426 -427 0
65 -426 -427 0
-65 -426 427 0
65 426 427 0
-427 0
-66 428 -429 0
66 -428 -429 0
-66 -428 429 0
66 428 429 0
-429 0
-67 430 -431 0
67 -430 -431 0
-67 -430 431 0
67 430 431 0
-431 0
-68 432 -433 0
68 -432 -433 0
-68 -432 433 0
68 432 433 0
-433 0
-69 434 -435 0
69 -434 -435 0
-69 -434 435 0
69 434 435 0
-435 0
-106 436 -437 0
106 -436 -437 0
-106 -436 437 0
106 436 437 0
-437 0
-108 438 -439 0
108 -438 -439 0
-108 -438 439 0
108 438 439 0
-439 0
-109 440 -441 0
109 -440 -441 0
-109 -440 441 0
109 440 441 0
-441 0
-110 442 -443 0
110 -442 -443 0
-110 -442 443 0
110 442 443 0
-443 0
-111 444 -445 0
111 -444 -445 0
-111 -444 445 0
111 444 445 0
-445 0
-112 446 -447 0
112 -446 -447 0
-112 -446 447 0
112 446 447 0
-447 0
-113 448 -449 0
113 -448 -449 0
-113 -448 449 0
113 448 449 0
-449 0
-114 450 -451 0
114 -450 -451 0
-114 -450 451 0
114 450 451 0
-451 0
-115 452 -453 0
115 -452 -453 0
-115 -452 453 0
115 452 453 0
-453 0
-116 454 -455 0
116 -454 -455 0
-116 -454 455 0
116 454 455 0
-455 0
-117 456 -457 0
117 -456 -457 0
-117 -456 457 0
117 456 457 0
-457 0
-152 458 -459 0
152 -458 -459 0
-152 -458 459 0
152 458 459 0
-459 0
-154 460 -461 0
154 -460 -461 0
-154 -460 461 0
154 460 461 0
-461 0
-155 462 -463 0
155 -462 -463 0
-155 -462 463 0
155 462 463 0
-463 0
-156 464 -465 0
156 -464 -465 0
-156 -464 465 0
156 464 465 0
-465 0
-157 466 -467 0
157 -466 -467 0
-157 -466 467 0
157 466 467 0
-467 0
-158 468 -469 0
158 -468 -469 0
-158 -468 469 0
158 468 469 0
-469 0
-159 470 -471 0
159 -470 -471 0
-159 -470 471 0
159 470 471 0
-471 0
-160 472 -473 0
160 -472 -473 0
-160 -472 473 0
160 472 473 0
-473 0
-183 474 -475 0
183 -474 -475 0
-183 -474 475 0
183 474 475 0
-475 0
-185 476 -477 0
185 -476 -477 0
-185 -476 477 0
185 476 477 0
-477 0
-186 478 -479 0
186 -478 -479 0
-186 -478 479 0
186 478 479 0
-479 0
-187 480 -481 0
187 -480 -481 0
-187 -480 481 0
187 480 481 0
-481 0
-188 482 -483 0
188 -482 -483 0
-188 -482 483 0
188 482 483 0
-483 0
-189 484 -485 0
189 -484 -485 0
-189 -484 485 0
189 484 485 0
-485 0
-190 486 -487 0
190 -486 -487 0
-190 -486 487 0
190 486 487 0
-487 0
-191 488 -489 0
191 -488 -489 0
-191 -488 489 0
191 488 489 0
-489 0
-192 490 -491 0
192 -490 -491 0
-192 -490 491 0
192 490 491 0
-491 0
-219 492 -493 0
219 -492 -493 0
-219 -492 493 0
219 492 493 0
-493 0
-221 494 -495 0
221 -494 -495 0
-221 -494 495 0
221 494 495 0
-495 0
-222 496 -497 0
222 -496 -497 0
-222 -496 497 0
222 496 497 0
-497 0
-223 498 -499 0
223 -498 -499 0
-223 -498 499 0
223 498 499 0
-499 0
-224 500 -501 0
224 -500 -501 0
-224 -500 501 0
224 500 501 0
-501 0
-225 502 -503 0
225 -502 -503 0
-225 -502 503 0
225 502 503 0
-503 0
-240 504 -505 0
240 -504 -505 0
-240 -504 505 0
240 504 505 0
-505 0
-242 506 -507 0
242 -506 -507 0
-242 -506 507 0
242 506 507 0
-507 0
-243 508 -509 0
243 -508 -509 0
-243 -508 509 0
243 508 509 0
-509 0
-244 510 -511 0
244 -510 -511 0
-244 -510 511 0
244 510 511 0
-511 0
-245 512 -513 0
245 -512 -513 0
-245 -512 513 0
245 512 513 0
-513 0
-246 514 -515 0
246 -514 -515 0
-246 -514 515 0
246 514 515 0
-515 0
-247 516 -517 0
247 -516 -517 0
-247 -516 517 0
247 516 517 0
-517 0
-268 518 -519 0
268 -518 -519 0
-268 -518 519 0
268 518 519 0
-519 0
-270 520 -521 0
270 -520 -521 0
-270 -520 521 0
270 520 521 0
-521 0
-271 522 -523 0
271 -522 -523 0
-271 -522 523 0
271 522 523 0
-523 0
-272 524 -525 0
272 -524 -525 0
-272 -524 525 0
272 524 525 0
-525 0
-273 526 -527 0
273 -526 -527 0
-273 -526 527 0
273 526 527 0
-527 0
-274 528 -529 0
274 -528 -529 0
-274 -528 529 0
274 528 529 0
-529 0
-275 530 -531 0
275 -530 -531 0
-275 -530 531 0
275 530 531 0
-531 0
-296 532 -533 0
296 -532 -533 0
-296 -532 533 0
296 532 533 0
-533 0
-298 534 -535 0
298 -534 -535 0
-298 -534 535 0
298 534 535 0
-535 0
-299 536 -537 0
299 -536 -537 0
-299 -536 537 0
299 536 537 0
-537 0
-300 538 -539 0
300 -538 -539 0
-300 -538 539 0
300 538 539 0
-539 0
-301 540 -541 0
301 -540 -541 0
-301 -540 541 0
301 540 541 0
-541 0
-302 542 -543 0
302 -542 -543 0
-302 -542 543 0
302 542 543 0
-543 0
-303 544 -545 0
303 -544 -545 0
-303 -544 545 0
303 544 545 0
-545 0
-304 546 -547 0
304 -546 -547 0
-304 -546 547 0
304 546 547 0
-547 0
-305 548 -549 0
305 -548 -549 0
-305 -548 549 0
305 548 549 0
-549 0
-334 550 -551 0
334 -550 -551 0
-334 -550 551 0
334 550 551 0
-551 0
-336 552 -553 0
336 -552 -553 0
-336 -552 553 0
336 552 553 0
-553 0
-337 554 -555 0
337 -554 -555 0
-337 -554 555 0
337 554 555 0
-555 0
-338 556 -557 0
338 -556 -557 0
-338 -556 557 0
338 556 557 0
-557 0
-339 558 -559 0
339 -558 -559 0
-339 -558 559 0
339 558 559 0
-559 0
-340 560 -561 0
340 -560 -561 0
-340 -560 561 0
340 560 561 0
-561 0
-341 562 -563 0
341 -562 -563 0
-341 -562 563 0
341 562 563 0
-563 0
-342 564 -565 0
342 -564 -565 0
-342 -564 565 0
342 564 565 0
-565 0
-343 566 -567 0
343 -566 -567 0
-343 -566 567 0
343 566 567 0
-567 0
-344 568 -569 0
344 -568 -569 0
-344 -568 569 0
344 568 569 0
-569 0
-345 570 -571 0
345 -570 -571 0
-345 -570 571 0
345 570 571 0
-571 0
-572 -378 0
-572 -380 0
-572 -382 0
-572 -384 0
-572 -386 0
-572 -388 0
-572 -390 0
-572 -392 0
-572 -394 0
-572 -396 0
398 -572 0
400 -572 0
-572 -402 0
-572 -404 0
-572 -406 0
408 -572 0
-572 -410 0
-572 -412 0
-572 -414 0
416 -572 0
418 -572 0
-572 -420 0
422 -572 0
424 -572 0
-572 -426 0
428 -572 0
430 -572 0
-572 -432 0
-572 -434 0
-572 -436 0
-572 -438 0
440 -572 0
-572 -442 0
-572 -444 0
446 -572 0
448 -572 0
-572 -450 0
452 -572 0
-572 -454 0
-572 -456 0
458 -572 0
460 -572 0
462 -572 0
-572 -464 0
-572 -466 0
-572 -468 0
470 -572 0
-572 -472 0
-572 -474 0
-572 -476 0
478 -572 0
480 -572 0
482 -572 0
-572 -484 0
-572 -486 0
-572 -488 0
-572 -490 0
492 -572 0
494 -572 0
496 -572 0
498 -572 0
500 -572 0
-572 -502 0
504 -572 0
-572 -506 0
508 -572 0
-572 -510 0
512 -572 0
514 -572 0
-572 -516 0
518 -572 0
520 -572 0
522 -572 0
524 -572 0
526 -572 0
-572 -528 0
-572 -530 0
532 -572 0
534 -572 0
536 -572 0
538 -572 0
-572 -540 0
542 -572 0
-572 -544 0
-572 -546 0
548 -572 0
550 -572 0
552 -572 0
554 -572 0
556 -572 0
-572 -558 0
-572 -560 0
562 -572 0
-572 -564 0
566 -572 0
568 -572 0
570 -572 0
572 0
-573 0
-574 0
-575 0
-576 0
-577 0
-578 0
-579 0
-580 0
